
Gurobi 11.0.3 (linux64) logging started Sun Nov 24 15:00:10 2024

Set parameter LogFile to value "/home/yihong/Coding/OR_SUC/SUC_results_bigM100000_thread4/case24_ieee_rts_theta0.1_epsilon0.025_gurobi_seed1490000_num_gen100_N_WDR150_load_scaling_factor1_exact_T24quadra_cost.txt"
Set parameter TimeLimit to value 3600
Gurobi Optimizer version 11.0.3 build v11.0.3rc0 (linux64 - "Ubuntu 20.04.6 LTS")

CPU model: AMD EPYC 7532 32-Core Processor, instruction set [SSE2|AVX|AVX2]
Thread count: 64 physical cores, 128 logical processors, using up to 4 threads

Optimize a model with 54015 rows, 30061 columns and 917478 nonzeros
Model fingerprint: 0xacc2173c
Model has 2400 quadratic constraints
Variable types: 27511 continuous, 2550 integer (2550 binary)
Coefficient statistics:
  Matrix range     [3e-04, 1e+05]
  QMatrix range    [2e-03, 8e-03]
  QLMatrix range   [8e-02, 6e+01]
  Objective range  [1e+00, 1e+00]
  Bounds range     [1e+00, 1e+00]
  RHS range        [1e+00, 1e+05]
Presolve removed 43781 rows and 12836 columns
Presolve time: 0.31s
Presolved: 10234 rows, 17225 columns, 54651 nonzeros
Presolved model has 2400 quadratic constraint(s)
Variable types: 14721 continuous, 2504 integer (2504 binary)

Root relaxation: objective 3.791749e+04, 8412 iterations, 0.24 seconds (0.35 work units)

    Nodes    |    Current Node    |     Objective Bounds      |     Work
 Expl Unexpl |  Obj  Depth IntInf | Incumbent    BestBd   Gap | It/Node Time

     0     0 37917.4870    0   31          - 37917.4870      -     -    0s
     0     0 361311.815    0  757          - 361311.815      -     -    1s
     0     0 413749.982    0  675          - 413749.982      -     -    1s
     0     0 654809.054    0  580          - 654809.054      -     -    1s
     0     0 654944.740    0  419          - 654944.740      -     -    1s
     0     0 655296.688    0  369          - 655296.688      -     -    1s
     0     0 655325.488    0  370          - 655325.488      -     -    1s
     0     0 655635.320    0  385          - 655635.320      -     -    1s
     0     0 655641.271    0  385          - 655641.271      -     -    2s
     0     2 655641.414    0  385          - 655641.414      -     -    2s
H  614   262                    655969.48598 655693.959  0.04%  21.5    4s
*  614   262             165    655969.48598 655693.959  0.04%  21.5    4s

Cutting planes:
  Gomory: 7
  Implied bound: 212
  MIR: 103
  Flow cover: 147
  Relax-and-lift: 15

Explored 636 nodes (36416 simplex iterations) in 4.95 seconds (6.32 work units)
Thread count was 4 (of 128 available processors)

Solution count 2: 655969 655969 

Optimal solution found (tolerance 1.00e-03)
Warning: max constraint violation (6.4702e-07) exceeds tolerance
Best objective 6.559694859774e+05, best bound 6.556939588547e+05, gap 0.0420%
